% File represents an instance of a Composite Structure problem to be solved by a CP framework
% Created on 2025-03-26 10:41:16.619
T = 56;
n = 9;
m = 12;
edges = [(2, 1),
(4, 5),
(7, 8),
(3, 2),
(6, 5),
(9, 8),
(4, 1),
(4, 7),
(2, 5),
(5, 8),
(3, 6),
(6, 9)];
counts = [|10, 8, 10, 20,
|10, 10, 10, 20,
|12, 12, 12, 20,
|10, 8, 10, 22,
|10, 8, 10, 20,
|10, 12, 10, 20,
|10, 6, 10, 22,
|10, 4, 10, 20,
|10, 10, 10, 20|];
